
Gurobi 6.5.2 (linux64) logging started Thu Jan 25 20:43:03 2018

Changed value of parameter LogFile to data/mip_solutions/furman_sahinidis/reduced_transportation/6sp-gg1_gurobi.log
   Prev: gurobi.log  Default: 
Changed value of parameter Threads to 1
   Prev: 0  Min: 0  Max: 1024  Default: 0
Optimize a model with 41 rows, 146 columns and 419 nonzeros
Coefficient statistics:
  Matrix range    [1e+00, 1e+03]
  Objective range [1e+00, 1e+00]
  Bounds range    [1e+00, 1e+00]
  RHS range       [1e+00, 1e+03]
Found heuristic solution: objective 3
Presolve removed 41 rows and 146 columns
Presolve time: 0.00s
Presolve: All rows and columns removed

Explored 0 nodes (0 simplex iterations) in 0.00 seconds
Thread count was 1 (of 8 available processors)

Optimal solution found (tolerance 4.00e-02)
Best objective 3.000000000000e+00, best bound 3.000000000000e+00, gap 0.0%
